Optimal - objective value 239.00000000
      5 x_0_5                    1                       0
     11 x_1_4                    1                       0
     20 x_2_6                    1                       0
     24 x_3_3                    1                       0
     28 x_4_0                    1                       0
     37 x_5_2                    1                       0
     43 x_6_1                    1                       0
    113 y_0_5_1_4                1                      57
    118 y_0_5_3_3                1                      67
    159 y_1_4_5_2                1                      59
    194 y_3_3_6_1                1                      56
